p edge 50 309 5
v 10 5 6 10 14 15 22 35 39 46 49
v 7 2 20 28 29 31 44 50
v 11 4 11 12 26 30 33 36 37 42 43 45
v 10 8 9 16 17 18 23 24 27 38 47
v 12 1 3 7 13 19 21 25 32 34 40 41 48
e 1 4
e 1 6
e 1 8
e 1 9
e 1 11
e 1 15
e 1 18
e 1 19
e 1 21
e 1 24
e 1 29
e 1 32
e 1 33
e 1 34
e 2 6
e 2 7
e 2 8
e 2 11
e 2 18
e 2 20
e 2 24
e 2 25
e 2 30
e 2 44
e 2 46
e 2 47
e 2 48
e 2 50
e 3 10
e 3 14
e 3 21
e 3 22
e 3 24
e 3 30
e 3 38
e 3 41
e 3 45
e 3 46
e 3 47
e 4 7
e 4 25
e 4 26
e 4 28
e 4 33
e 4 39
e 4 47
e 4 49
e 4 50
e 5 12
e 5 14
e 5 15
e 5 17
e 5 28
e 5 33
e 5 34
e 5 36
e 5 37
e 5 49
e 6 10
e 6 12
e 6 24
e 6 28
e 6 31
e 6 35
e 6 42
e 6 43
e 6 47
e 6 48
e 7 10
e 7 16
e 7 17
e 7 19
e 7 27
e 7 30
e 7 36
e 7 38
e 7 45
e 7 48
e 8 15
e 8 17
e 8 22
e 8 25
e 8 29
e 8 34
e 8 35
e 8 36
e 8 40
e 8 41
e 8 43
e 8 45
e 8 46
e 8 48
e 9 17
e 9 19
e 9 21
e 9 27
e 9 29
e 9 30
e 9 32
e 9 37
e 9 40
e 9 43
e 9 44
e 9 46
e 9 48
e 10 13
e 10 24
e 10 25
e 10 29
e 10 35
e 10 37
e 10 40
e 10 41
e 10 48
e 11 14
e 11 19
e 11 20
e 11 22
e 11 27
e 11 34
e 11 44
e 12 15
e 12 16
e 12 23
e 12 28
e 12 32
e 12 36
e 12 38
e 12 39
e 12 41
e 12 49
e 13 18
e 13 20
e 13 21
e 13 23
e 13 26
e 13 28
e 13 29
e 13 33
e 13 35
e 13 36
e 13 39
e 13 40
e 14 19
e 14 20
e 14 21
e 14 24
e 14 26
e 14 27
e 14 30
e 14 42
e 14 45
e 14 47
e 14 48
e 15 18
e 15 19
e 15 22
e 15 25
e 15 33
e 15 45
e 15 47
e 15 49
e 16 19
e 16 20
e 16 28
e 16 31
e 16 35
e 16 42
e 16 45
e 17 18
e 17 22
e 17 23
e 17 25
e 17 30
e 17 33
e 17 35
e 17 36
e 17 39
e 17 43
e 17 47
e 18 19
e 18 23
e 18 25
e 18 30
e 18 34
e 18 37
e 18 39
e 18 44
e 18 45
e 19 22
e 19 27
e 19 33
e 19 36
e 19 38
e 19 39
e 19 45
e 19 46
e 19 47
e 20 23
e 20 29
e 20 34
e 20 40
e 20 45
e 20 50
e 21 22
e 21 24
e 21 27
e 21 28
e 21 38
e 21 39
e 21 41
e 21 45
e 22 26
e 22 38
e 22 39
e 23 26
e 23 29
e 23 30
e 23 32
e 23 33
e 23 34
e 23 36
e 23 39
e 23 42
e 23 48
e 24 25
e 24 26
e 24 35
e 24 38
e 24 45
e 24 46
e 24 47
e 24 48
e 25 32
e 25 35
e 25 38
e 25 40
e 25 50
e 26 28
e 26 32
e 26 36
e 26 37
e 26 49
e 27 29
e 27 30
e 27 31
e 27 42
e 28 33
e 28 36
e 28 44
e 29 30
e 29 34
e 29 36
e 29 40
e 29 48
e 29 50
e 30 31
e 30 35
e 30 36
e 30 39
e 30 40
e 30 42
e 30 43
e 31 32
e 31 33
e 31 34
e 31 39
e 31 45
e 31 46
e 32 33
e 32 35
e 32 40
e 33 41
e 33 47
e 33 49
e 34 35
e 34 40
e 34 41
e 34 45
e 35 36
e 35 37
e 35 40
e 35 43
e 35 45
e 35 48
e 36 42
e 36 43
e 36 45
e 36 47
e 36 50
e 37 38
e 37 39
e 37 46
e 38 47
e 38 48
e 39 40
e 39 48
e 39 49
e 40 42
e 40 49
e 41 45
e 41 46
e 41 49
e 42 47
e 42 48
e 43 44
e 43 46
e 44 49
e 45 49
